p tw 50 193
0 1
0 2
0 3
0 12
0 10
0 27
0 37
0 45
0 46
1 2
1 3
1 20
1 21
1 35
1 44
1 46
1 48
2 24
2 34
2 12
2 32
2 42
3 26
3 32
3 38
3 39
3 15
4 5
4 6
4 8
4 32
4 18
5 6
5 8
5 9
5 11
5 22
5 40
5 32
5 33
5 18
6 8
6 10
6 41
6 20
6 43
7 8
7 9
7 30
7 33
7 48
7 49
7 46
8 9
8 23
8 26
9 11
9 33
9 13
9 39
10 11
10 12
10 15
10 16
10 14
10 26
10 41
10 27
10 43
11 12
11 29
11 36
11 33
11 30
11 35
11 49
12 37
12 35
12 47
12 27
12 49
13 14
13 15
13 24
13 25
13 34
13 39
14 15
14 26
14 29
14 24
14 19
14 41
14 47
15 16
15 28
15 44
15 29
15 24
15 19
15 39
16 22
16 23
16 27
16 38
16 44
17 18
17 19
17 25
17 34
18 19
18 32
18 31
18 40
18 33
19 24
20 21
20 27
20 35
20 28
20 42
20 43
20 38
21 31
21 35
21 27
21 33
21 25
21 43
21 30
21 42
22 23
22 40
22 31
22 27
22 42
22 48
23 34
23 47
23 26
23 37
23 45
24 25
24 34
25 34
25 43
26 27
26 28
26 32
27 28
27 35
27 33
27 49
28 36
28 37
28 42
28 44
29 30
29 31
29 36
29 35
29 38
29 44
30 31
30 33
30 42
30 36
31 35
31 40
32 42
34 47
35 44
35 47
35 36
35 49
36 37
37 45
37 47
37 46
38 39
38 44
38 42
39 40
39 48
40 48
41 43
41 47
42 48
45 47
45 46
46 48
46 49
48 49
